Temas = {Internacional, 
        Nacional, 
        Local, 
        Deporte, 
        Cultura,
        Entretenimiento
        };
    minPaginas = [0, 1, 2, 4, 2, 3];
    maxPaginas = [122, 2, 3, 45, 13, 5];
    promLectores = [12, 3, 4, 34, 35, 1234];
    p = 11; 